; Options: -in -smt2
(set-option :produce-unsat-assumptions true)

(declare-fun start!1747 () Bool)

(assert start!1747)

(declare-fun b!9326 () Bool)

(declare-fun e!5110 () Bool)

(declare-fun e!5108 () Bool)

(assert (=> b!9326 (= e!5110 e!5108)))

(declare-fun res!7686 () Bool)

(assert (=> b!9326 (=> (not res!7686) (not e!5108))))

(declare-fun lt!4574 () (_ BitVec 32))

(declare-fun e!15 () (_ BitVec 32))

(declare-fun i!179 () (_ BitVec 32))

(declare-fun lt!4575 () (_ BitVec 32))

(declare-fun jz!32 () (_ BitVec 32))

(assert (=> b!9326 (= res!7686 (and (= (bvsub e!15 (bvmul #b00000000000000000000000000011000 (bvadd lt!4575 #b00000000000000000000000000000001))) #b00000000000000000000000000000000) (bvsle #b00000000000000000000000000000000 i!179) (bvsle i!179 (bvadd lt!4574 jz!32 #b00000000000000000000000000000001))))))

(declare-fun lt!4573 () (_ BitVec 32))

(assert (=> b!9326 (= lt!4575 (ite (bvslt lt!4573 #b00000000000000000000000000000000) #b00000000000000000000000000000000 lt!4573))))

(assert (=> b!9326 (= lt!4573 (bvsdiv (bvsub e!15 #b00000000000000000000000000000011) #b00000000000000000000000000011000))))

(declare-datatypes ((array!702 0))(
  ( (array!703 (arr!308 (Array (_ BitVec 32) (_ FloatingPoint 11 53))) (size!308 (_ BitVec 32))) )
))
(declare-fun xx!44 () array!702)

(assert (=> b!9326 (= lt!4574 (bvsub (size!308 xx!44) #b00000000000000000000000000000001))))

(declare-fun b!9327 () Bool)

(declare-fun res!7688 () Bool)

(assert (=> b!9327 (=> (not res!7688) (not e!5108))))

(declare-fun f!58 () array!702)

(declare-fun fInv!0 (array!702) Bool)

(assert (=> b!9327 (= res!7688 (fInv!0 f!58))))

(declare-fun b!9328 () Bool)

(assert (=> b!9328 (= e!5108 (and (bvsle i!179 (bvadd lt!4574 jz!32)) (let ((lhs!51 (bvsub lt!4575 lt!4574))) (and (= (bvand lhs!51 #b10000000000000000000000000000000) (bvand i!179 #b10000000000000000000000000000000)) (not (= (bvand lhs!51 #b10000000000000000000000000000000) (bvand (bvadd lhs!51 i!179) #b10000000000000000000000000000000)))))))))

(declare-fun b!9325 () Bool)

(declare-fun res!7687 () Bool)

(assert (=> b!9325 (=> (not res!7687) (not e!5110))))

(declare-fun xxInv!0 (array!702) Bool)

(assert (=> b!9325 (= res!7687 (xxInv!0 xx!44))))

(declare-fun res!7689 () Bool)

(assert (=> start!1747 (=> (not res!7689) (not e!5110))))

(assert (=> start!1747 (= res!7689 (and (bvsle #b00000000000000000000000000000000 jz!32) (bvsle jz!32 #b00000000000000000000000000001111) (bvsle #b00000000000000000000000000011000 e!15) (bvsle e!15 #b00000000000000000000001111110000) (= (bvsrem e!15 #b00000000000000000000000000011000) #b00000000000000000000000000000000)))))

(assert (=> start!1747 e!5110))

(assert (=> start!1747 true))

(declare-fun array_inv!258 (array!702) Bool)

(assert (=> start!1747 (array_inv!258 xx!44)))

(assert (=> start!1747 (array_inv!258 f!58)))

(assert (= (and start!1747 res!7689) b!9325))

(assert (= (and b!9325 res!7687) b!9326))

(assert (= (and b!9326 res!7686) b!9327))

(assert (= (and b!9327 res!7688) b!9328))

(declare-fun m!15227 () Bool)

(assert (=> b!9327 m!15227))

(declare-fun m!15229 () Bool)

(assert (=> b!9325 m!15229))

(declare-fun m!15231 () Bool)

(assert (=> start!1747 m!15231))

(declare-fun m!15233 () Bool)

(assert (=> start!1747 m!15233))

(check-sat (not b!9327) (not b!9325) (not start!1747))
(check-sat)
